NAME: tsp45_3
COMMENT: 45-tsp problem (Padberg/Rinaldi)
TYPE: TSP
DIMENSION: 45
EDGE_WEIGHT_TYPE : EUC_2D
NODE_COORD_SECTION
1 33 11
2 5 20
3 39 37
4 16 10
5 18 28
6 9 23
7 2 36
8 21 31
9 16 14
10 15 7
11 23 13
12 27 15
13 36 14
14 21 35
15 3 0
16 20 19
17 6 19
18 14 6
19 14 39
20 35 18
21 30 30
22 35 20
23 24 34
24 31 21
25 27 40
26 39 25
27 15 33
28 16 1
29 1 39
30 28 17
31 26 26
32 34 31
33 27 29
34 23 33
35 10 33
36 33 7
37 6 34
38 38 9
39 36 20
40 20 36
41 27 29
42 32 16
43 35 2
44 16 6
45 9 24
